1
0 0
1 1
14
15
0 1
1 2
13
14
0 2
1 3
12
13
0 3
1 4
11
12
0 4
1 5
10
11
0 5
1 6
9
10
0 6
1 7
8
9
0 7
1 8
7
8
0 8
1 9
6
7
0 9
1 10
5
6
0 10
1 11
4
5
0 11
1 12
3
4
0 12
1 13
2
3
0 13
1 14
1
2
0 14
1 15
0
1
